Normalized Data/p03_20_normalized_split0.vrp
NAME:p03_20_NORMALIZED_split
BEST_KNOWN: 0
COMMENT: 0
DIMENSION: 422
CAPACITY: 100
EDGE_WEIGHT_FORMAT: FUNCTION
EDGE_WEIGHT_TYPE: EXACT_2D
NODE_COORD_SECTION
1 0.00000 0.00000
2 25 -41
3 25 -41
4 25 -41
5 25 -41
6 25 -41
7 -29 9
8 -29 9
9 -29 9
10 27 10
11 27 10
12 27 10
13 50 -32
14 50 -32
15 50 -32
16 50 -32
17 50 -32
18 22 -1
19 22 -1
20 22 -1
21 22 -1
22 22 -1
23 14 8
24 14 8
25 36 32
26 36 32
27 36 32
28 36 32
29 -36 13
30 -36 13
31 -36 13
32 -36 13
33 -36 13
34 -43 23
35 -43 23
36 -43 23
37 -43 23
38 45 2
39 45 2
40 -38 -21
41 -38 -21
42 -38 -21
43 -38 -21
44 -38 -21
45 -38 -21
46 6 46
47 6 46
48 6 46
49 6 46
50 6 46
51 6 46
52 -24 -10
53 -24 -10
54 -24 -10
55 -24 -10
56 -3 -23
57 -3 -23
58 -3 -23
59 -3 -23
60 -3 -23
61 -3 -23
62 -5 10
63 -5 10
64 -5 10
65 -27 27
66 -27 27
67 40 -39
68 40 -39
69 40 -39
70 40 -39
71 -24 14
72 -24 14
73 -24 14
74 -1 28
75 -1 28
76 -1 28
77 -4 15
78 -4 15
79 -4 15
80 -4 15
81 0 -9
82 0 -9
83 0 -9
84 2 -10
85 2 -10
86 2 -10
87 15 -37
88 15 -37
89 15 -37
90 15 -37
91 -18 22
92 -18 22
93 -18 22
94 -18 22
95 -18 22
96 -18 22
97 -18 22
98 23 4
99 23 4
100 23 4
101 39 12
102 39 12
103 39 12
104 39 12
105 39 12
106 39 12
107 33 30
108 33 30
109 1 48
110 1 48
111 1 48
112 12 -4
113 12 -4
114 -10 -20
115 -10 -20
116 -10 -20
117 -10 -20
118 -10 -20
119 -3 5
120 -3 5
121 -3 5
122 -3 5
123 -26 -32
124 -26 -32
125 -26 -32
126 -26 -32
127 22 -49
128 22 -49
129 22 -49
130 22 -49
131 22 -49
132 22 -49
133 -40 8
134 -40 8
135 -40 8
136 -40 8
137 -40 8
138 50 10
139 50 10
140 50 10
141 50 10
142 50 10
143 -17 -25
144 -17 -25
145 -17 -25
146 -15 -20
147 -15 -20
148 -15 -20
149 -15 -20
150 48 -20
151 48 -20
152 48 -20
153 48 -20
154 48 -20
155 15 -4
156 15 -4
157 28 22
158 28 22
159 28 22
160 28 22
161 28 22
162 28 22
163 -12 31
164 -12 31
165 -12 31
166 -12 31
167 -48 37
168 -48 37
169 -48 37
170 -48 37
171 -48 37
172 -48 37
173 -48 37
174 1 -3
175 1 -3
176 1 -3
177 1 -3
178 -10 -27
179 -10 -27
180 -10 -27
181 -10 -27
182 -10 -27
183 -6 -43
184 -6 -43
185 -6 -43
186 -6 -43
187 -6 -43
188 36 2
189 36 2
190 36 2
191 36 2
192 36 2
193 4 -49
194 4 -49
195 4 -49
196 4 -49
197 4 -49
198 4 -49
199 4 -49
200 -47 -42
201 -47 -42
202 -47 -42
203 -47 -42
204 6 14
205 6 14
206 6 14
207 6 14
208 6 14
209 6 14
210 6 14
211 42 35
212 42 35
213 42 35
214 42 35
215 37 -28
216 37 -28
217 37 -28
218 37 -28
219 17 45
220 17 45
221 17 45
222 17 45
223 17 45
224 17 45
225 1 -44
226 1 -44
227 1 -44
228 1 -44
229 1 -44
230 50 1
231 50 1
232 50 1
233 -24 -23
234 -24 -23
235 -24 -23
236 -24 -23
237 -37 13
238 -37 13
239 -37 13
240 -37 13
241 23 -39
242 23 -39
243 23 -39
244 23 -39
245 48 -35
246 48 -35
247 48 -35
248 48 -35
249 -41 50
250 -41 50
251 -41 50
252 -41 50
253 -41 50
254 -23 3
255 -23 3
256 -23 3
257 -23 3
258 -23 3
259 -23 3
260 -23 3
261 37 -7
262 37 -7
263 37 -7
264 37 -7
265 -1 34
266 -1 34
267 -1 34
268 -1 34
269 -1 34
270 -1 34
271 -44 -27
272 -44 -27
273 -44 -27
274 -44 -27
275 -33 20
276 50 -3
277 50 -3
278 50 -3
279 50 -3
280 50 -3
281 5 -15
282 5 -15
283 -39 15
284 -39 15
285 -39 15
286 -39 15
287 -39 15
288 -39 15
289 -39 15
290 -31 -23
291 -31 -23
292 -31 -23
293 -31 -23
294 10 -46
295 10 -46
296 10 -46
297 29 -21
298 29 -21
299 29 -21
300 29 -21
301 20 -50
302 20 -50
303 20 -50
304 20 -50
305 35 41
306 35 41
307 35 41
308 35 41
309 35 41
310 35 41
311 2 -15
312 2 -15
313 -10 -16
314 -10 -16
315 -10 -16
316 45 -31
317 45 -31
318 24 -15
319 24 -15
320 24 -15
321 24 -15
322 -33 38
323 -33 38
324 37 15
325 37 15
326 37 15
327 37 15
328 37 15
329 -3 44
330 -3 44
331 -3 44
332 -3 44
333 -19 2
334 -19 2
335 -19 2
336 -19 2
337 -19 2
338 -19 2
339 -40 37
340 -40 37
341 -40 37
342 -40 37
343 -40 37
344 -40 37
345 -40 37
346 -21 -33
347 -21 -33
348 -21 -33
349 4 40
350 4 40
351 4 40
352 8 -41
353 8 -41
354 8 -41
355 8 -41
356 8 -41
357 36 33
358 36 33
359 36 33
360 36 33
361 36 33
362 36 33
363 -27 -20
364 -27 -20
365 -15 23
366 -15 23
367 -15 23
368 -15 23
369 49 -28
370 49 -28
371 49 -28
372 49 -28
373 49 -28
374 49 -28
375 16 37
376 16 37
377 16 37
378 34 47
379 34 47
380 34 47
381 -34 16
382 -34 16
383 -34 16
384 -34 16
385 -34 16
386 16 -9
387 16 -9
388 16 -9
389 -47 39
390 -47 39
391 -47 39
392 33 5
393 33 5
394 33 5
395 33 5
396 33 5
397 33 5
398 -28 40
399 -28 40
400 -28 40
401 -28 40
402 -28 40
403 -28 40
404 19 -15
405 19 -15
406 19 -15
407 19 -15
408 19 -15
409 20 -23
410 20 -23
411 20 -23
412 20 -23
413 39 43
414 39 43
415 39 43
416 39 43
417 39 43
418 39 43
419 31 9
420 31 9
421 26 26
422 26 26
DEMAND_SECTION
1 0
2 20
3 10
4 5
5 1
6 1
7 20
8 20
9 1
10 20
11 5
12 1
13 20
14 5
15 1
16 1
17 1
18 20
19 10
20 5
21 1
22 1
23 20
24 1
25 20
26 20
27 1
28 1
29 20
30 1
31 1
32 1
33 1
34 20
35 20
36 5
37 1
38 10
39 5
40 20
41 20
42 5
43 1
44 1
45 1
46 20
47 10
48 5
49 1
50 1
51 1
52 10
53 5
54 1
55 1
56 20
57 20
58 1
59 1
60 1
61 1
62 20
63 20
64 1
65 20
66 1
67 20
68 20
69 5
70 1
71 10
72 5
73 1
74 20
75 10
76 5
77 20
78 20
79 5
80 1
81 20
82 10
83 5
84 20
85 10
86 5
87 20
88 1
89 1
90 1
91 20
92 20
93 5
94 1
95 1
96 1
97 1
98 20
99 20
100 1
101 20
102 20
103 1
104 1
105 1
106 1
107 10
108 5
109 20
110 20
111 5
112 20
113 5
114 10
115 1
116 1
117 1
118 1
119 20
120 10
121 1
122 1
123 20
124 20
125 1
126 1
127 20
128 5
129 1
130 1
131 1
132 1
133 10
134 5
135 1
136 1
137 1
138 20
139 5
140 1
141 1
142 1
143 20
144 20
145 1
146 20
147 10
148 1
149 1
150 20
151 10
152 1
153 1
154 1
155 20
156 20
157 20
158 10
159 5
160 1
161 1
162 1
163 10
164 5
165 1
166 1
167 20
168 20
169 5
170 1
171 1
172 1
173 1
174 20
175 5
176 1
177 1
178 20
179 10
180 5
181 1
182 1
183 10
184 1
185 1
186 1
187 1
188 10
189 1
190 1
191 1
192 1
193 20
194 20
195 5
196 1
197 1
198 1
199 1
200 20
201 20
202 5
203 1
204 20
205 20
206 5
207 1
208 1
209 1
210 1
211 10
212 1
213 1
214 1
215 20
216 10
217 5
218 1
219 20
220 10
221 5
222 1
223 1
224 1
225 20
226 5
227 1
228 1
229 1
230 10
231 1
232 1
233 20
234 20
235 5
236 1
237 20
238 20
239 5
240 1
241 10
242 1
243 1
244 1
245 20
246 10
247 5
248 1
249 20
250 20
251 1
252 1
253 1
254 20
255 10
256 5
257 1
258 1
259 1
260 1
261 20
262 5
263 1
264 1
265 20
266 20
267 1
268 1
269 1
270 1
271 20
272 20
273 1
274 1
275 20
276 20
277 1
278 1
279 1
280 1
281 20
282 20
283 20
284 20
285 5
286 1
287 1
288 1
289 1
290 20
291 5
292 1
293 1
294 20
295 10
296 5
297 20
298 5
299 1
300 1
301 20
302 20
303 5
304 1
305 20
306 10
307 1
308 1
309 1
310 1
311 20
312 10
313 20
314 20
315 5
316 20
317 5
318 20
319 10
320 1
321 1
322 10
323 5
324 10
325 1
326 1
327 1
328 1
329 10
330 5
331 1
332 1
333 10
334 5
335 1
336 1
337 1
338 1
339 20
340 10
341 5
342 1
343 1
344 1
345 1
346 20
347 5
348 1
349 20
350 20
351 5
352 20
353 1
354 1
355 1
356 1
357 20
358 10
359 5
360 1
361 1
362 1
363 10
364 5
365 10
366 1
367 1
368 1
369 20
370 20
371 5
372 1
373 1
374 1
375 20
376 1
377 1
378 20
379 20
380 1
381 20
382 10
383 1
384 1
385 1
386 20
387 10
388 1
389 20
390 20
391 10
392 10
393 5
394 1
395 1
396 1
397 1
398 20
399 5
400 1
401 1
402 1
403 1
404 20
405 5
406 1
407 1
408 1
409 20
410 20
411 5
412 1
413 20
414 10
415 1
416 1
417 1
418 1
419 20
420 5
421 10
422 5
DEPOT_SECTION
1
-1
EOF