Normalized Data/p03_20_normalized_split0.sol
421 -8 7 6 259 255 258 257 254 256 253 333 332 334 336 337 335 -10 11 9 25 24 157 156 161 -20 18 19 21 17 97 99 98 22 23 -29 30 32 28 31 237 239 236 238 136 135 132 133 134 -36 35 33 34 286 287 282 285 284 288 283 -46 48 47 50 45 49 218 221 222 219 220 223 376 374 375 -51 52 53 54 44 41 43 42 39 40 291 292 290 289 363 -55 56 351 352 354 353 355 295 294 293 -60 58 59 57 182 183 184 185 186 192 194 195 197 198 196 193 224 228 225 227 226 82 -61 62 63 119 121 120 118 174 175 176 173 -66 69 67 68 4 5 3 1 2 243 240 241 242 -70 72 71 384 381 380 383 382 274 94 96 95 93 92 90 -73 75 74 328 331 329 330 108 109 110 -77 79 78 76 205 203 204 207 209 208 206 -80 81 310 311 281 280 -85 83 84 155 154 112 111 -89 88 86 87 300 301 303 302 131 130 127 129 126 128 -144 143 142 233 234 232 235 -147 146 145 148 124 122 125 123 345 346 347 -160 159 158 26 27 361 360 211 212 213 210 416 414 417 415 413 412 378 377 379 -164 162 165 163 402 401 397 400 399 398 65 64 91 366 364 367 365 -168 169 166 172 171 170 167 388 390 389 -178 180 181 177 179 114 116 117 115 113 314 312 313 -189 187 190 191 188 38 37 275 276 278 279 277 230 229 231 138 137 140 141 139 396 394 -261 262 260 263 151 152 150 153 149 368 369 -267 264 266 268 269 265 349 350 348 -270 272 271 273 202 201 199 200 362 -298 299 316 315 245 246 244 247 15 14 13 16 12 371 372 373 370 -306 307 305 309 308 304 356 357 359 358 106 107 420 421 -318 320 319 317 296 297 217 214 216 215 404 406 405 -321 322 248 249 252 251 250 340 339 338 344 343 341 342 -385 386 387 403 407 411 408 409 410 -391 393 392 395 101 102 105 104 103 100 323 327 326 325 324 418 419 0 





OBJ=
2986.515
BEST_KNOWN=
0.000